NAME          
ROWS
 N  OBJ
 L  c3
 L  c4
 L  c5
 L  c6
 L  c7
 G  c1
 G  c2
COLUMNS
    ss[1]     c1        1
    ss[1]     OBJ       1000
    ss[2]     c2        1
    ss[2]     OBJ       1000
    s[1]      c3        1
    s[1]      OBJ       -1000
    s[2]      c4        1
    s[2]      OBJ       -1000
    s[3]      c5        1
    s[3]      OBJ       -1000
    s[4]      c6        1
    s[4]      OBJ       -1000
    s[5]      c7        1
    s[5]      OBJ       -1000
    MARKER    'MARKER'                 'INTORG'
    x[1]      c3        523
    x[1]      c4        524
    x[1]      c5        441
    x[1]      c6        959
    x[1]      c7        1000
    x[1]      c1        556
    x[1]      c2        413
    x[1]      OBJ       -241
    x[2]      c3        940
    x[2]      c4        304
    x[2]      c5        777
    x[2]      c6        912
    x[2]      c7        430
    x[2]      c1        125
    x[2]      c2        794
    x[2]      OBJ       -658
    x[3]      c3        933
    x[3]      c4        525
    x[3]      c5        73
    x[3]      c6        469
    x[3]      c7        888
    x[3]      c1        736
    x[3]      c2        494
    x[3]      OBJ       -442
    x[4]      c3        411
    x[4]      c4        400
    x[4]      c5        948
    x[4]      c6        37
    x[4]      c7        258
    x[4]      c1        557
    x[4]      c2        821
    x[4]      OBJ       139
    x[5]      c3        125
    x[5]      c4        928
    x[5]      c5        126
    x[5]      c6        671
    x[5]      c7        727
    x[5]      c1        301
    x[5]      c2        348
    x[5]      OBJ       -199
    x[6]      c3        834
    x[6]      c4        370
    x[6]      c5        873
    x[6]      c6        16
    x[6]      c7        557
    x[6]      c1        6
    x[6]      c2        961
    x[6]      OBJ       41
    x[7]      c3        298
    x[7]      c4        589
    x[7]      c5        984
    x[7]      c6        465
    x[7]      c7        270
    x[7]      c1        111
    x[7]      c2        63
    x[7]      OBJ       -437
    x[8]      c3        671
    x[8]      c4        986
    x[8]      c5        192
    x[8]      c6        366
    x[8]      c7        509
    x[8]      c1        16
    x[8]      c2        962
    x[8]      OBJ       -447
    x[9]      c3        664
    x[9]      c4        933
    x[9]      c5        590
    x[9]      c6        172
    x[9]      c7        493
    x[9]      c1        704
    x[9]      c2        799
    x[9]      OBJ       22
    x[10]     c3        901
    x[10]     c4        168
    x[10]     c5        139
    x[10]     c6        940
    x[10]     c7        538
    x[10]     c1        952
    x[10]     c2        242
    x[10]     OBJ       -212
    x[11]     c3        236
    x[11]     c4        661
    x[11]     c5        260
    x[11]     c6        636
    x[11]     c7        178
    x[11]     c1        408
    x[11]     c2        352
    x[11]     OBJ       -296
    x[12]     c3        382
    x[12]     c4        28
    x[12]     c5        494
    x[12]     c6        467
    x[12]     c7        468
    x[12]     c1        492
    x[12]     c2        337
    x[12]     OBJ       -360
    x[13]     c3        381
    x[13]     c4        349
    x[13]     c5        352
    x[13]     c6        250
    x[13]     c7        266
    x[13]     c1        163
    x[13]     c2        111
    x[13]     OBJ       -529
    x[14]     c3        789
    x[14]     c4        864
    x[14]     c5        215
    x[14]     c6        120
    x[14]     c7        104
    x[14]     c1        938
    x[14]     c2        559
    x[14]     OBJ       124
    x[15]     c3        613
    x[15]     c4        305
    x[15]     c5        786
    x[15]     c6        678
    x[15]     c7        848
    x[15]     c1        315
    x[15]     c2        889
    x[15]     OBJ       -450
    x[16]     c3        954
    x[16]     c4        74
    x[16]     c5        264
    x[16]     c6        210
    x[16]     c7        850
    x[16]     c1        949
    x[16]     c2        595
    x[16]     OBJ       100
    x[17]     c3        637
    x[17]     c4        692
    x[17]     c5        486
    x[17]     c6        328
    x[17]     c7        931
    x[17]     c1        670
    x[17]     c2        914
    x[17]     OBJ       61
    x[18]     c3        438
    x[18]     c4        502
    x[18]     c5        318
    x[18]     c6        910
    x[18]     c7        477
    x[18]     c1        1000
    x[18]     c2        576
    x[18]     OBJ       -176
    x[19]     c3        911
    x[19]     c4        177
    x[19]     c5        489
    x[19]     c6        529
    x[19]     c7        528
    x[19]     c1        457
    x[19]     c2        312
    x[19]     OBJ       -481
    x[20]     c3        459
    x[20]     c4        461
    x[20]     c5        266
    x[20]     c6        620
    x[20]     c7        525
    x[20]     c1        816
    x[20]     c2        323
    x[20]     OBJ       -122
    x[21]     c3        630
    x[21]     c4        752
    x[21]     c5        668
    x[21]     c6        1
    x[21]     c7        882
    x[21]     c1        357
    x[21]     c2        153
    x[21]     OBJ       -788
    x[22]     c3        722
    x[22]     c4        562
    x[22]     c5        263
    x[22]     c6        18
    x[22]     c7        287
    x[22]     c1        495
    x[22]     c2        888
    x[22]     OBJ       -117
    x[23]     c3        929
    x[23]     c4        708
    x[23]     c5        489
    x[23]     c6        284
    x[23]     c7        200
    x[23]     c1        916
    x[23]     c2        287
    x[23]     OBJ       -211
    x[24]     c3        225
    x[24]     c4        733
    x[24]     c5        11
    x[24]     c6        940
    x[24]     c7        93
    x[24]     c1        852
    x[24]     c2        627
    x[24]     OBJ       -112
    x[25]     c3        463
    x[25]     c4        956
    x[25]     c5        139
    x[25]     c6        931
    x[25]     c7        697
    x[25]     c1        614
    x[25]     c2        888
    x[25]     OBJ       -124
    x[26]     c3        702
    x[26]     c4        858
    x[26]     c5        301
    x[26]     c6        8
    x[26]     c7        974
    x[26]     c1        161
    x[26]     c2        634
    x[26]     OBJ       -379
    x[27]     c3        870
    x[27]     c4        535
    x[27]     c5        37
    x[27]     c6        121
    x[27]     c7        498
    x[27]     c1        60
    x[27]     c2        424
    x[27]     OBJ       -240
    x[28]     c3        787
    x[28]     c4        848
    x[28]     c5        132
    x[28]     c6        10
    x[28]     c7        20
    x[28]     c1        382
    x[28]     c2        365
    x[28]     OBJ       16
    x[29]     c3        577
    x[29]     c4        592
    x[29]     c5        831
    x[29]     c6        728
    x[29]     c7        490
    x[29]     c1        373
    x[29]     c2        374
    x[29]     OBJ       -288
    x[30]     c3        119
    x[30]     c4        701
    x[30]     c5        738
    x[30]     c6        790
    x[30]     c7        969
    x[30]     c1        570
    x[30]     c2        85
    x[30]     OBJ       -560
    x[31]     c3        835
    x[31]     c4        219
    x[31]     c5        727
    x[31]     c6        171
    x[31]     c7        26
    x[31]     c1        182
    x[31]     c2        650
    x[31]     OBJ       -442
    x[32]     c3        795
    x[32]     c4        597
    x[32]     c5        459
    x[32]     c6        613
    x[32]     c7        578
    x[32]     c1        934
    x[32]     c2        265
    x[32]     OBJ       -320
    x[33]     c3        313
    x[33]     c4        774
    x[33]     c5        737
    x[33]     c6        200
    x[33]     c7        897
    x[33]     c1        129
    x[33]     c2        711
    x[33]     OBJ       -220
    x[34]     c3        938
    x[34]     c4        716
    x[34]     c5        818
    x[34]     c6        73
    x[34]     c7        130
    x[34]     c1        542
    x[34]     c2        204
    x[34]     OBJ       -420
    x[35]     c3        239
    x[35]     c4        450
    x[35]     c5        304
    x[35]     c6        882
    x[35]     c7        198
    x[35]     c1        767
    x[35]     c2        816
    x[35]     OBJ       305
    x[36]     c3        751
    x[36]     c4        871
    x[36]     c5        988
    x[36]     c6        138
    x[36]     c7        253
    x[36]     c1        964
    x[36]     c2        595
    x[36]     OBJ       -174
    x[37]     c3        736
    x[37]     c4        84
    x[37]     c5        702
    x[37]     c6        83
    x[37]     c7        916
    x[37]     c1        896
    x[37]     c2        111
    x[37]     OBJ       74
    x[38]     c3        447
    x[38]     c4        881
    x[38]     c5        144
    x[38]     c6        969
    x[38]     c7        864
    x[38]     c1        350
    x[38]     c2        707
    x[38]     OBJ       -494
    x[39]     c3        81
    x[39]     c4        239
    x[39]     c5        156
    x[39]     c6        105
    x[39]     c7        891
    x[39]     c1        178
    x[39]     c2        774
    x[39]     OBJ       -280
    x[40]     c3        984
    x[40]     c4        83
    x[40]     c5        180
    x[40]     c6        55
    x[40]     c7        714
    x[40]     c1        557
    x[40]     c2        138
    x[40]     OBJ       -457
    x[41]     c3        529
    x[41]     c4        285
    x[41]     c5        885
    x[41]     c6        335
    x[41]     c7        48
    x[41]     c1        975
    x[41]     c2        687
    x[41]     OBJ       48
    x[42]     c3        683
    x[42]     c4        309
    x[42]     c5        289
    x[42]     c6        75
    x[42]     c7        497
    x[42]     c1        70
    x[42]     c2        131
    x[42]     OBJ       -667
    x[43]     c3        67
    x[43]     c4        713
    x[43]     c5        199
    x[43]     c6        46
    x[43]     c7        963
    x[43]     c1        226
    x[43]     c2        279
    x[43]     OBJ       -182
    x[44]     c3        55
    x[44]     c4        16
    x[44]     c5        493
    x[44]     c6        909
    x[44]     c7        255
    x[44]     c1        356
    x[44]     c2        775
    x[44]     OBJ       152
    x[45]     c3        21
    x[45]     c4        47
    x[45]     c5        657
    x[45]     c6        774
    x[45]     c7        370
    x[45]     c1        404
    x[45]     c2        191
    x[45]     OBJ       -224
    x[46]     c3        192
    x[46]     c4        475
    x[46]     c5        234
    x[46]     c6        858
    x[46]     c7        84
    x[46]     c1        79
    x[46]     c2        217
    x[46]     OBJ       -370
    x[47]     c3        776
    x[47]     c4        541
    x[47]     c5        866
    x[47]     c6        863
    x[47]     c7        769
    x[47]     c1        833
    x[47]     c2        181
    x[47]     OBJ       -572
    x[48]     c3        797
    x[48]     c4        592
    x[48]     c5        952
    x[48]     c6        665
    x[48]     c7        765
    x[48]     c1        616
    x[48]     c2        750
    x[48]     OBJ       -154
    x[49]     c3        248
    x[49]     c4        610
    x[49]     c5        50
    x[49]     c6        845
    x[49]     c7        656
    x[49]     c1        575
    x[49]     c2        890
    x[49]     OBJ       98
    x[50]     c3        253
    x[50]     c4        165
    x[50]     c5        834
    x[50]     c6        812
    x[50]     c7        767
    x[50]     c1        987
    x[50]     c2        776
    x[50]     OBJ       -129
    x[51]     c3        405
    x[51]     c4        990
    x[51]     c5        891
    x[51]     c6        549
    x[51]     c7        16
    x[51]     c1        340
    x[51]     c2        484
    x[51]     OBJ       -476
    x[52]     c3        600
    x[52]     c4        378
    x[52]     c5        398
    x[52]     c6        338
    x[52]     c7        334
    x[52]     c1        794
    x[52]     c2        655
    x[52]     OBJ       102
    x[53]     c3        706
    x[53]     c4        45
    x[53]     c5        604
    x[53]     c6        460
    x[53]     c7        749
    x[53]     c1        321
    x[53]     c2        662
    x[53]     OBJ       -124
    x[54]     c3        188
    x[54]     c4        642
    x[54]     c5        791
    x[54]     c6        214
    x[54]     c7        806
    x[54]     c1        337
    x[54]     c2        662
    x[54]     OBJ       -326
    x[55]     c3        882
    x[55]     c4        870
    x[55]     c5        8
    x[55]     c6        42
    x[55]     c7        966
    x[55]     c1        580
    x[55]     c2        995
    x[55]     OBJ       178
    x[56]     c3        28
    x[56]     c4        605
    x[56]     c5        917
    x[56]     c6        952
    x[56]     c7        378
    x[56]     c1        920
    x[56]     c2        248
    x[56]     OBJ       -218
    x[57]     c3        165
    x[57]     c4        856
    x[57]     c5        76
    x[57]     c6        152
    x[57]     c7        247
    x[57]     c1        425
    x[57]     c2        718
    x[57]     OBJ       -117
    x[58]     c3        912
    x[58]     c4        812
    x[58]     c5        266
    x[58]     c6        808
    x[58]     c7        126
    x[58]     c1        170
    x[58]     c2        321
    x[58]     OBJ       -561
    x[59]     c3        368
    x[59]     c4        833
    x[59]     c5        233
    x[59]     c6        169
    x[59]     c7        860
    x[59]     c1        955
    x[59]     c2        533
    x[59]     OBJ       184
    x[60]     c3        896
    x[60]     c4        837
    x[60]     c5        322
    x[60]     c6        161
    x[60]     c7        601
    x[60]     c1        581
    x[60]     c2        391
    x[60]     OBJ       -232
    x[61]     c3        825
    x[61]     c4        512
    x[61]     c5        830
    x[61]     c6        162
    x[61]     c7        545
    x[61]     c1        739
    x[61]     c2        81
    x[61]     OBJ       -652
    x[62]     c3        235
    x[62]     c4        83
    x[62]     c5        370
    x[62]     c6        446
    x[62]     c7        5
    x[62]     c1        622
    x[62]     c2        253
    x[62]     OBJ       69
    x[63]     c3        72
    x[63]     c4        54
    x[63]     c5        248
    x[63]     c6        162
    x[63]     c7        163
    x[63]     c1        473
    x[63]     c2        879
    x[63]     OBJ       107
    x[64]     c3        739
    x[64]     c4        998
    x[64]     c5        579
    x[64]     c6        514
    x[64]     c7        487
    x[64]     c1        789
    x[64]     c2        540
    x[64]     OBJ       -367
    x[65]     c3        873
    x[65]     c4        743
    x[65]     c5        120
    x[65]     c6        502
    x[65]     c7        447
    x[65]     c1        946
    x[65]     c2        959
    x[65]     OBJ       120
    x[66]     c3        169
    x[66]     c4        668
    x[66]     c5        976
    x[66]     c6        507
    x[66]     c7        889
    x[66]     c1        499
    x[66]     c2        118
    x[66]     OBJ       -718
    x[67]     c3        408
    x[67]     c4        748
    x[67]     c5        554
    x[67]     c6        578
    x[67]     c7        910
    x[67]     c1        666
    x[67]     c2        989
    x[67]     OBJ       -181
    x[68]     c3        986
    x[68]     c4        809
    x[68]     c5        890
    x[68]     c6        655
    x[68]     c7        771
    x[68]     c1        546
    x[68]     c2        781
    x[68]     OBJ       -438
    x[69]     c3        474
    x[69]     c4        704
    x[69]     c5        364
    x[69]     c6        963
    x[69]     c7        485
    x[69]     c1        630
    x[69]     c2        678
    x[69]     OBJ       108
    x[70]     c3        838
    x[70]     c4        630
    x[70]     c5        488
    x[70]     c6        29
    x[70]     c7        626
    x[70]     c1        997
    x[70]     c2        787
    x[70]     OBJ       112
    x[71]     c3        108
    x[71]     c4        414
    x[71]     c5        435
    x[71]     c6        356
    x[71]     c7        65
    x[71]     c1        462
    x[71]     c2        424
    x[71]     OBJ       -329
    x[72]     c3        331
    x[72]     c4        25
    x[72]     c5        704
    x[72]     c6        939
    x[72]     c7        958
    x[72]     c1        750
    x[72]     c2        721
    x[72]     OBJ       110
    x[73]     c3        361
    x[73]     c4        723
    x[73]     c5        56
    x[73]     c6        605
    x[73]     c7        893
    x[73]     c1        841
    x[73]     c2        623
    x[73]     OBJ       32
    x[74]     c3        360
    x[74]     c4        10
    x[74]     c5        435
    x[74]     c6        217
    x[74]     c7        985
    x[74]     c1        795
    x[74]     c2        833
    x[74]     OBJ       18
    x[75]     c3        790
    x[75]     c4        479
    x[75]     c5        891
    x[75]     c6        145
    x[75]     c7        156
    x[75]     c1        2
    x[75]     c2        986
    x[75]     OBJ       -406
    x[76]     c3        206
    x[76]     c4        923
    x[76]     c5        776
    x[76]     c6        670
    x[76]     c7        892
    x[76]     c1        522
    x[76]     c2        141
    x[76]     OBJ       -606
    x[77]     c3        258
    x[77]     c4        156
    x[77]     c5        5
    x[77]     c6        604
    x[77]     c7        253
    x[77]     c1        778
    x[77]     c2        66
    x[77]     OBJ       -169
    x[78]     c3        331
    x[78]     c4        505
    x[78]     c5        804
    x[78]     c6        821
    x[78]     c7        661
    x[78]     c1        42
    x[78]     c2        983
    x[78]     OBJ       -605
    x[79]     c3        117
    x[79]     c4        844
    x[79]     c5        858
    x[79]     c6        121
    x[79]     c7        720
    x[79]     c1        714
    x[79]     c2        449
    x[79]     OBJ       -346
    x[80]     c3        208
    x[80]     c4        897
    x[80]     c5        198
    x[80]     c6        434
    x[80]     c7        988
    x[80]     c1        645
    x[80]     c2        654
    x[80]     OBJ       92
    x[81]     c3        865
    x[81]     c4        483
    x[81]     c5        993
    x[81]     c6        818
    x[81]     c7        588
    x[81]     c1        855
    x[81]     c2        458
    x[81]     OBJ       -412
    x[82]     c3        521
    x[82]     c4        611
    x[82]     c5        344
    x[82]     c6        720
    x[82]     c7        474
    x[82]     c1        396
    x[82]     c2        675
    x[82]     OBJ       -347
    x[83]     c3        214
    x[83]     c4        956
    x[83]     c5        124
    x[83]     c6        711
    x[83]     c7        518
    x[83]     c1        768
    x[83]     c2        515
    x[83]     OBJ       96
    x[84]     c3        607
    x[84]     c4        590
    x[84]     c5        955
    x[84]     c6        804
    x[84]     c7        878
    x[84]     c1        392
    x[84]     c2        718
    x[84]     OBJ       -575
    x[85]     c3        625
    x[85]     c4        452
    x[85]     c5        885
    x[85]     c6        615
    x[85]     c7        705
    x[85]     c1        141
    x[85]     c2        486
    x[85]     OBJ       -580
    x[86]     c3        126
    x[86]     c4        323
    x[86]     c5        884
    x[86]     c6        745
    x[86]     c7        664
    x[86]     c1        544
    x[86]     c2        881
    x[86]     OBJ       -158
    x[87]     c3        549
    x[87]     c4        328
    x[87]     c5        565
    x[87]     c6        134
    x[87]     c7        818
    x[87]     c1        847
    x[87]     c2        726
    x[87]     OBJ       36
    x[88]     c3        429
    x[88]     c4        199
    x[88]     c5        42
    x[88]     c6        835
    x[88]     c7        793
    x[88]     c1        263
    x[88]     c2        386
    x[88]     OBJ       -324
    x[89]     c3        541
    x[89]     c4        501
    x[89]     c5        94
    x[89]     c6        205
    x[89]     c7        154
    x[89]     c1        325
    x[89]     c2        796
    x[89]     OBJ       -201
    x[90]     c3        636
    x[90]     c4        883
    x[90]     c5        558
    x[90]     c6        946
    x[90]     c7        676
    x[90]     c1        227
    x[90]     c2        229
    x[90]     OBJ       -699
    x[91]     c3        26
    x[91]     c4        81
    x[91]     c5        19
    x[91]     c6        894
    x[91]     c7        170
    x[91]     c1        765
    x[91]     c2        398
    x[91]     OBJ       -141
    x[92]     c3        366
    x[92]     c4        14
    x[92]     c5        328
    x[92]     c6        385
    x[92]     c7        963
    x[92]     c1        128
    x[92]     c2        335
    x[92]     OBJ       -436
    x[93]     c3        194
    x[93]     c4        953
    x[93]     c5        77
    x[93]     c6        491
    x[93]     c7        165
    x[93]     c1        10
    x[93]     c2        624
    x[93]     OBJ       -363
    x[94]     c3        476
    x[94]     c4        88
    x[94]     c5        564
    x[94]     c6        915
    x[94]     c7        25
    x[94]     c1        973
    x[94]     c2        283
    x[94]     OBJ       9
    x[95]     c3        956
    x[95]     c4        134
    x[95]     c5        54
    x[95]     c6        956
    x[95]     c7        742
    x[95]     c1        162
    x[95]     c2        182
    x[95]     OBJ       -802
    x[96]     c3        568
    x[96]     c4        573
    x[96]     c5        749
    x[96]     c6        204
    x[96]     c7        661
    x[96]     c1        743
    x[96]     c2        589
    x[96]     OBJ       -328
    x[97]     c3        520
    x[97]     c4        887
    x[97]     c5        597
    x[97]     c6        449
    x[97]     c7        689
    x[97]     c1        208
    x[97]     c2        153
    x[97]     OBJ       -673
    x[98]     c3        159
    x[98]     c4        326
    x[98]     c5        973
    x[98]     c6        862
    x[98]     c7        429
    x[98]     c1        223
    x[98]     c2        945
    x[98]     OBJ       1
    x[99]     c3        879
    x[99]     c4        491
    x[99]     c5        633
    x[99]     c6        596
    x[99]     c7        703
    x[99]     c1        981
    x[99]     c2        272
    x[99]     OBJ       -193
    x[100]    c3        404
    x[100]    c4        269
    x[100]    c5        469
    x[100]    c6        460
    x[100]    c7        964
    x[100]    c1        143
    x[100]    c2        849
    x[100]    OBJ       -421
RHS
    rhs       c3        12841
    rhs       c4        13172
    rhs       c5        12088
    rhs       c6        12269
    rhs       c7        13839
    rhs       c1        1316
    rhs       c2        1338
RANGES
BOUNDS
 LO bounds    ss[1]     0
 PL bounds    ss[1]
 LO bounds    ss[2]     0
 PL bounds    ss[2]
 MI bounds    s[1]
 UP bounds    s[1]      0
 MI bounds    s[2]
 UP bounds    s[2]      0
 MI bounds    s[3]
 UP bounds    s[3]      0
 MI bounds    s[4]
 UP bounds    s[4]      0
 MI bounds    s[5]
 UP bounds    s[5]      0
 BV bounds    x[1]
 BV bounds    x[2]
 BV bounds    x[3]
 BV bounds    x[4]
 BV bounds    x[5]
 BV bounds    x[6]
 BV bounds    x[7]
 BV bounds    x[8]
 BV bounds    x[9]
 BV bounds    x[10]
 BV bounds    x[11]
 BV bounds    x[12]
 BV bounds    x[13]
 BV bounds    x[14]
 BV bounds    x[15]
 BV bounds    x[16]
 BV bounds    x[17]
 BV bounds    x[18]
 BV bounds    x[19]
 BV bounds    x[20]
 BV bounds    x[21]
 BV bounds    x[22]
 BV bounds    x[23]
 BV bounds    x[24]
 BV bounds    x[25]
 BV bounds    x[26]
 BV bounds    x[27]
 BV bounds    x[28]
 BV bounds    x[29]
 BV bounds    x[30]
 BV bounds    x[31]
 BV bounds    x[32]
 BV bounds    x[33]
 BV bounds    x[34]
 BV bounds    x[35]
 BV bounds    x[36]
 BV bounds    x[37]
 BV bounds    x[38]
 BV bounds    x[39]
 BV bounds    x[40]
 BV bounds    x[41]
 BV bounds    x[42]
 BV bounds    x[43]
 BV bounds    x[44]
 BV bounds    x[45]
 BV bounds    x[46]
 BV bounds    x[47]
 BV bounds    x[48]
 BV bounds    x[49]
 BV bounds    x[50]
 BV bounds    x[51]
 BV bounds    x[52]
 BV bounds    x[53]
 BV bounds    x[54]
 BV bounds    x[55]
 BV bounds    x[56]
 BV bounds    x[57]
 BV bounds    x[58]
 BV bounds    x[59]
 BV bounds    x[60]
 BV bounds    x[61]
 BV bounds    x[62]
 BV bounds    x[63]
 BV bounds    x[64]
 BV bounds    x[65]
 BV bounds    x[66]
 BV bounds    x[67]
 BV bounds    x[68]
 BV bounds    x[69]
 BV bounds    x[70]
 BV bounds    x[71]
 BV bounds    x[72]
 BV bounds    x[73]
 BV bounds    x[74]
 BV bounds    x[75]
 BV bounds    x[76]
 BV bounds    x[77]
 BV bounds    x[78]
 BV bounds    x[79]
 BV bounds    x[80]
 BV bounds    x[81]
 BV bounds    x[82]
 BV bounds    x[83]
 BV bounds    x[84]
 BV bounds    x[85]
 BV bounds    x[86]
 BV bounds    x[87]
 BV bounds    x[88]
 BV bounds    x[89]
 BV bounds    x[90]
 BV bounds    x[91]
 BV bounds    x[92]
 BV bounds    x[93]
 BV bounds    x[94]
 BV bounds    x[95]
 BV bounds    x[96]
 BV bounds    x[97]
 BV bounds    x[98]
 BV bounds    x[99]
 BV bounds    x[100]
ENDATA
